50
29
0 29 31 33 35 37 40 41 44 45 46 47 48 49
1 29 35 36 38 41 42 45 46 47 48
2 29 30 33 38 39 40 41 46 47 49
3 29 30 34 35 36 38 40 41 42 46 48
4 29 33 34 35 36 37 39 42 47
5 29 33 35 38 39 40 41 47
6 29 30 31 33 35 38 39 41 42 46 47 48 49
7 29 32 35 38 40 41 42 46
8 29 33 34 39 40 41 42 45 47 49
9 33 34 35 38 45 46 49
10 29 30 33 38 39 40 42 43 45 48 49
11 29 38 39 40 46 47 49
12 29 32 33 35 38 39 40 41 43 45 46 47
13 30 32 33 34 38 40 42 47
14 29 30 33 34 35 37 38 41 46 48
15 29 35 39 45 46 49
16 34 35 36 40 46 49
17 35 40 41 42 46 49
18 29 32 33 34 44 49
19 33 35 37 38 39 41 42 44 47 49
20 29 38 39 41 42 48
21 32 37 38 40 42 46 48 49
22 29 34 39 41 47 49
23 30 44 45
24 30
25 32 33 35 37
26
27
28 41 44 47
